Mack/Bortfeldt(2008)
Bin-Packing-Problem
BP-RG/SBSBPP/SSSCSP
Testcase-ID	8
Problem-ID	148
no_item_types	698
no_items	1285
CONTAINER_DATA (l,w,h)	587	233	1
ITEMS_DATA:
Type	x	y	z	no_items
1	57	49	1	2
2	58	47	1	2
3	56	46	1	1
4	57	44	1	1
5	59	42	1	2
6	52	47	1	2
7	49	49	1	1
8	60	40	1	2
9	51	46	1	2
10	53	44	1	1
11	54	43	1	4
12	55	42	1	1
13	50	46	1	1
14	57	40	1	2
15	58	39	1	2
16	48	47	1	1
17	50	45	1	3
18	57	39	1	1
19	47	47	1	1
20	48	46	1	1
21	58	38	1	2
22	50	44	1	6
23	51	43	1	2
24	52	42	1	1
25	47	46	1	2
26	58	37	1	1
27	46	46	1	1
28	47	45	1	2
29	48	44	1	2
30	57	37	1	2
31	54	39	1	1
32	50	42	1	2
33	51	41	1	1
34	56	37	1	1
35	48	43	1	3
36	50	41	1	1
37	60	34	1	2
38	51	40	1	3
39	52	39	1	1
40	48	42	1	2
41	59	34	1	3
42	50	40	1	2
43	57	35	1	2
44	51	39	1	1
45	60	33	1	1
46	52	38	1	2
47	47	41	1	3
48	55	35	1	1
49	48	40	1	1
50	58	33	1	1
51	45	42	1	2
52	51	37	1	2
53	46	41	1	1
54	57	33	1	2
55	52	36	1	2
56	48	39	1	2
57	49	38	1	2
58	60	31	1	2
59	44	42	1	1
60	56	33	1	2
61	46	40	1	2
62	54	34	1	1
63	47	39	1	3
64	48	38	1	1
65	57	32	1	4
66	48	38	1	2
67	52	35	1	1
68	55	33	1	1
69	50	36	1	2
70	46	39	1	2
71	51	35	1	4
72	48	37	1	3
73	49	36	1	1
74	45	39	1	2
75	50	35	1	2
76	53	33	1	3
77	60	29	1	4
78	47	37	1	2
79	42	41	1	1
80	52	33	1	3
81	45	38	1	1
82	47	36	1	2
83	51	33	1	1
84	48	35	1	1
85	56	30	1	4
86	42	40	1	1
87	54	31	1	2
88	49	34	1	2
89	45	37	1	2
90	46	36	1	2
91	57	29	1	1
92	59	28	1	1
93	41	40	1	3
94	43	38	1	1
95	48	34	1	2
96	60	27	1	1
97	45	36	1	1
98	52	31	1	2
99	46	35	1	3
100	47	34	1	2
101	42	38	1	2
102	55	29	1	1
103	43	37	1	3
104	48	33	1	1
105	51	31	1	2
106	45	35	1	2
107	49	32	1	1
108	56	28	1	1
109	49	32	1	2
110	60	26	1	2
111	40	39	1	1
112	42	37	1	1
113	44	35	1	3
114	59	26	1	4
115	45	34	1	1
116	51	30	1	2
117	45	34	1	1
118	40	38	1	1
119	46	33	1	2
120	56	27	1	2
121	55	27	1	1
122	45	33	1	2
123	53	28	1	3
124	39	38	1	1
125	41	36	1	2
126	49	30	1	2
127	43	34	1	1
128	47	31	1	2
129	50	29	1	2
130	39	37	1	1
131	60	24	1	2
132	48	30	1	1
133	41	35	1	3
134	53	27	1	1
135	57	25	1	1
136	49	29	1	1
137	43	33	1	1
138	47	30	1	1
139	44	32	1	1
140	38	37	1	3
141	39	36	1	2
142	54	26	1	3
143	39	36	1	2
144	56	25	1	1
145	41	34	1	3
146	48	29	1	1
147	42	33	1	1
148	46	30	1	2
149	60	23	1	2
150	46	30	1	2
151	51	27	1	1
152	55	25	1	1
153	49	28	1	1
154	38	36	1	1
155	44	31	1	1
156	40	34	1	2
157	59	23	1	3
158	41	33	1	1
159	52	26	1	3
160	45	30	1	3
161	54	25	1	1
162	42	32	1	1
163	46	29	1	1
164	43	31	1	2
165	37	36	1	2
166	38	35	1	1
167	39	34	1	2
168	60	22	1	2
169	44	30	1	1
170	40	33	1	2
171	44	30	1	3
172	45	29	1	3
173	50	26	1	3
174	48	27	1	2
175	37	35	1	3
176	38	34	1	2
177	43	30	1	1
178	39	33	1	1
179	40	32	1	3
180	58	22	1	1
181	44	29	1	1
182	49	26	1	1
183	53	24	1	1
184	45	28	1	1
185	36	35	1	2
186	37	34	1	1
187	38	33	1	3
188	39	32	1	1
189	48	26	1	1
190	43	29	1	2
191	54	23	1	1
192	40	31	1	2
193	59	21	1	1
194	36	34	1	3
195	47	26	1	1
196	37	33	1	2
197	42	29	1	1
198	58	21	1	1
199	38	32	1	2
200	55	22	1	1
201	43	28	1	2
202	40	30	1	2
203	48	25	1	2
204	40	30	1	1
205	60	20	1	1
206	50	24	1	1
207	40	30	1	1
208	46	26	1	3
209	35	34	1	3
210	44	27	1	4
211	37	32	1	1
212	38	31	1	3
213	49	24	1	3
214	39	30	1	3
215	53	22	1	1
216	43	27	1	1
217	40	29	1	2
218	58	20	1	1
219	40	29	1	1
220	34	34	1	1
221	35	33	1	2
222	48	24	1	2
223	36	32	1	1
224	50	23	1	3
225	41	28	1	1
226	44	26	1	1
227	60	19	1	2
228	57	20	1	5
229	42	27	1	3
230	39	29	1	1
231	45	25	1	1
232	51	22	1	4
233	59	19	1	3
234	56	20	1	2
235	36	31	1	1
236	48	23	1	2
237	46	24	1	3
238	38	29	1	1
239	58	19	1	2
240	55	20	1	2
241	50	22	1	2
242	44	25	1	1
243	39	28	1	1
244	52	21	1	3
245	42	26	1	1
246	39	28	1	3
247	34	32	1	1
248	57	19	1	2
249	47	23	1	4
250	40	27	1	2
251	36	30	1	2
252	45	24	1	2
253	36	30	1	1
254	49	22	1	2
255	43	25	1	2
256	51	21	1	3
257	38	28	1	2
258	56	19	1	1
259	59	18	1	2
260	53	20	1	1
261	33	32	1	3
262	48	22	1	1
263	33	32	1	1
264	34	31	1	2
265	39	27	1	2
266	35	30	1	1
267	42	25	1	2
268	58	18	1	4
269	36	29	1	3
270	40	26	1	1
271	37	28	1	3
272	45	23	1	1
273	47	22	1	4
274	49	21	1	4
275	38	27	1	2
276	32	32	1	2
277	33	31	1	1
278	34	30	1	2
279	60	17	1	1
280	35	29	1	1
281	39	26	1	1
282	46	22	1	1
283	44	23	1	1
284	46	22	1	1
285	36	28	1	2
286	50	20	1	3
287	37	27	1	3
288	45	22	1	2
289	55	18	1	2
290	43	23	1	1
291	34	29	1	1
292	41	24	1	1
293	49	20	1	1
294	39	25	1	3
295	36	27	1	2
296	54	18	1	1
297	57	17	1	4
298	42	23	1	3
299	40	24	1	1
300	48	20	1	2
301	32	30	1	2
302	60	16	1	1
303	32	30	1	3
304	33	29	1	1
305	34	28	1	1
306	38	25	1	2
307	43	22	1	1
308	35	27	1	4
309	41	23	1	3
310	47	20	1	1
311	39	24	1	1
312	31	30	1	2
313	58	16	1	2
314	37	25	1	3
315	33	28	1	2
316	44	21	1	1
317	40	23	1	2
318	46	20	1	1
319	54	17	1	1
320	51	18	1	1
321	54	17	1	1
322	38	24	1	4
323	35	26	1	4
324	43	21	1	3
325	41	22	1	1
326	60	15	1	1
327	45	20	1	2
328	36	25	1	2
329	31	29	1	2
330	39	23	1	1
331	47	19	1	2
332	33	27	1	4
333	34	26	1	2
334	42	21	1	3
335	49	18	1	2
336	44	20	1	1
337	35	25	1	2
338	46	19	1	1
339	31	28	1	1
340	51	17	1	2
341	32	27	1	1
342	48	18	1	2
343	32	27	1	1
344	54	16	1	2
345	41	21	1	3
346	43	20	1	1
347	33	26	1	2
348	39	22	1	3
349	33	26	1	1
350	37	23	1	1
351	34	25	1	2
352	53	16	1	1
353	35	24	1	2
354	30	28	1	3
355	35	24	1	1
356	40	21	1	2
357	56	15	1	2
358	35	24	1	2
359	40	21	1	1
360	31	27	1	4
361	44	19	1	1
362	32	26	1	1
363	36	23	1	3
364	46	18	1	2
365	36	23	1	2
366	39	21	1	1
367	48	17	1	2
368	51	16	1	2
369	37	22	1	3
370	29	28	1	2
371	58	14	1	1
372	45	18	1	2
373	30	27	1	3
374	45	18	1	2
375	31	26	1	1
376	50	16	1	2
377	42	19	1	3
378	33	24	1	1
379	36	22	1	1
380	44	18	1	3
381	36	22	1	2
382	44	18	1	1
383	49	16	1	5
384	29	27	1	3
385	46	17	1	3
386	30	26	1	2
387	39	20	1	2
388	30	26	1	1
389	43	18	1	1
390	35	22	1	2
391	32	24	1	1
392	45	17	1	2
393	38	20	1	2
394	33	23	1	1
395	36	21	1	2
396	42	18	1	1
397	28	27	1	2
398	42	18	1	1
399	29	26	1	2
400	30	25	1	1
401	50	15	1	2
402	30	25	1	1
403	31	24	1	3
404	37	20	1	1
405	41	18	1	1
406	32	23	1	3
407	35	21	1	1
408	49	15	1	1
409	35	21	1	3
410	43	17	1	3
411	27	27	1	2
412	56	13	1	1
413	28	26	1	2
414	56	13	1	3
415	33	22	1	1
416	29	25	1	1
417	30	24	1	1
418	45	16	1	1
419	48	15	1	2
420	30	24	1	1
421	34	21	1	2
422	42	17	1	2
423	34	21	1	5
424	31	23	1	2
425	59	12	1	2
426	47	15	1	2
427	32	22	1	2
428	27	26	1	5
429	39	18	1	1
430	54	13	1	3
431	28	25	1	3
432	50	14	1	3
433	28	25	1	2
434	33	21	1	3
435	30	23	1	2
436	43	16	1	1
437	38	18	1	3
438	36	19	1	1
439	34	20	1	1
440	52	13	1	1
441	27	25	1	3
442	45	15	1	4
443	32	21	1	2
444	28	24	1	1
445	32	21	1	1
446	28	24	1	3
447	42	16	1	2
448	37	18	1	3
449	35	19	1	1
450	33	20	1	2
451	55	12	1	2
452	33	20	1	1
453	30	22	1	2
454	41	16	1	1
455	31	21	1	2
456	26	25	1	2
457	50	13	1	3
458	26	25	1	1
459	36	18	1	1
460	27	24	1	1
461	46	14	1	1
462	28	23	1	1
463	40	16	1	2
464	32	20	1	2
465	58	11	1	3
466	29	22	1	2
467	58	11	1	1
468	30	21	1	4
469	45	14	1	2
470	37	17	1	1
471	33	19	1	1
472	57	11	1	2
473	33	19	1	2
474	39	16	1	1
475	44	14	1	2
476	41	15	1	2
477	36	17	1	2
478	34	18	1	1
479	47	13	1	1
480	38	16	1	4
481	32	19	1	2
482	43	14	1	2
483	60	10	1	1
484	25	24	1	1
485	26	23	1	1
486	35	17	1	3
487	27	22	1	1
488	37	16	1	2
489	59	10	1	1
490	31	19	1	2
491	34	17	1	2
492	32	18	1	2
493	48	12	1	2
494	36	16	1	1
495	32	18	1	1
496	25	23	1	2
497	41	14	1	2
498	44	13	1	2
499	26	22	1	1
500	44	13	1	2
501	30	19	1	1
502	38	15	1	3
503	30	19	1	1
504	38	15	1	2
505	30	19	1	2
506	33	17	1	3
507	40	14	1	2
508	31	18	1	3
509	37	15	1	2
510	46	12	1	2
511	29	19	1	1
512	34	16	1	2
513	32	17	1	2
514	34	16	1	2
515	32	17	1	2
516	27	20	1	3
517	28	19	1	4
518	38	14	1	2
519	23	23	1	3
520	48	11	1	2
521	31	17	1	1
522	25	21	1	1
523	29	18	1	2
524	26	20	1	4
525	37	14	1	1
526	47	11	1	3
527	43	12	1	3
528	27	19	1	1
529	34	15	1	1
530	30	17	1	2
531	34	15	1	1
532	30	17	1	2
533	39	13	1	1
534	23	22	1	2
535	46	11	1	1
536	28	18	1	2
537	36	14	1	1
538	42	12	1	1
539	25	20	1	4
540	31	16	1	1
541	33	15	1	2
542	45	11	1	5
543	33	15	1	2
544	26	19	1	2
545	38	13	1	1
546	26	19	1	2
547	29	17	1	1
548	35	14	1	2
549	23	21	1	2
550	37	13	1	3
551	30	16	1	1
552	32	15	1	1
553	30	16	1	3
554	24	20	1	2
555	32	15	1	1
556	28	17	1	3
557	34	14	1	1
558	28	17	1	1
559	25	19	1	5
560	39	12	1	2
561	36	13	1	3
562	31	15	1	2
563	29	16	1	1
564	33	14	1	1
565	42	11	1	3
566	33	14	1	2
567	46	10	1	1
568	23	20	1	2
569	27	17	1	2
570	24	19	1	3
571	38	12	1	1
572	35	13	1	1
573	25	18	1	1
574	30	15	1	2
575	45	10	1	3
576	32	14	1	2
577	28	16	1	1
578	32	14	1	1
579	26	17	1	1
580	34	13	1	1
581	26	17	1	2
582	34	13	1	2
583	26	17	1	1
584	22	20	1	1
585	40	11	1	1
586	22	20	1	2
587	44	10	1	2
588	23	19	1	1
589	29	15	1	1
590	31	14	1	1
591	27	16	1	1
592	24	18	1	2
593	36	12	1	1
594	27	16	1	3
595	24	18	1	1
596	33	13	1	1
597	25	17	1	2
598	28	15	1	2
599	21	20	1	1
600	28	15	1	1
601	35	12	1	2
602	42	10	1	4
603	21	20	1	1
604	35	12	1	2
605	21	20	1	3
606	22	19	1	2
607	32	13	1	1
608	23	18	1	1
609	41	10	1	1
610	24	17	1	1
611	29	14	1	3
612	27	15	1	1
613	25	16	1	2
614	40	10	1	2
615	21	19	1	1
616	22	18	1	3
617	36	11	1	1
618	22	18	1	3
619	23	17	1	1
620	26	15	1	1
621	30	13	1	1
622	26	15	1	1
623	30	13	1	1
624	26	15	1	2
625	35	11	1	2
626	24	16	1	1
627	20	19	1	3
628	25	15	1	2
629	22	17	1	1
630	31	12	1	3
631	37	10	1	1
632	23	16	1	4
633	28	13	1	1
634	24	15	1	2
635	20	18	1	2
636	30	12	1	3
637	20	18	1	1
638	21	17	1	3
639	22	16	1	2
640	27	13	1	5
641	35	10	1	2
642	25	14	1	2
643	29	12	1	1
644	23	15	1	1
645	19	18	1	1
646	31	11	1	1
647	20	17	1	2
648	26	13	1	2
649	21	16	1	1
650	30	11	1	2
651	25	13	1	1
652	27	12	1	2
653	19	17	1	2
654	23	14	1	1
655	20	16	1	1
656	32	10	1	1
657	29	11	1	1
658	21	15	1	1
659	24	13	1	1
660	26	12	1	1
661	18	17	1	1
662	19	16	1	1
663	20	15	1	2
664	25	12	1	1
665	27	11	1	1
666	29	10	1	4
667	17	17	1	4
668	24	12	1	2
669	19	15	1	4
670	20	14	1	2
671	23	12	1	1
672	27	10	1	3
673	22	12	1	2
674	24	11	1	1
675	20	13	1	2
676	26	10	1	1
677	20	13	1	2
678	16	16	1	1
679	21	12	1	1
680	25	10	1	2
681	19	13	1	1
682	16	15	1	2
683	20	12	1	2
684	19	12	1	1
685	15	15	1	4
686	16	14	1	2
687	17	13	1	1
688	18	12	1	2
689	16	13	1	4
690	17	12	1	2
691	20	10	1	3
692	15	13	1	1
693	14	13	1	2
694	16	11	1	1
695	17	10	1	2
696	15	11	1	1
697	13	11	1	1
698	12	11	1	3
